certificates/rado_a12_c232_N29.cnf
c Rad2 upper bound instance: x1 + 12*x2 - x3 = 232, interval [1,29]
p cnf 29 138
1 9 20 0
-1 -9 -20 0
1 21 0
-1 -21 0
2 10 20 0
-2 -10 -20 0
2 21 22 0
-2 -21 -22 0
3 11 20 0
-3 -11 -20 0
3 21 23 0
-3 -21 -23 0
4 12 20 0
-4 -12 -20 0
4 21 24 0
-4 -21 -24 0
1 5 19 0
-1 -5 -19 0
5 13 20 0
-5 -13 -20 0
5 21 25 0
-5 -21 -25 0
2 6 19 0
-2 -6 -19 0
6 14 20 0
-6 -14 -20 0
6 21 26 0
-6 -21 -26 0
3 7 19 0
-3 -7 -19 0
7 15 20 0
-7 -15 -20 0
7 21 27 0
-7 -21 -27 0
4 8 19 0
-4 -8 -19 0
8 16 20 0
-8 -16 -20 0
8 21 28 0
-8 -21 -28 0
5 9 19 0
-5 -9 -19 0
9 17 20 0
-9 -17 -20 0
9 21 29 0
-9 -21 -29 0
6 10 19 0
-6 -10 -19 0
10 18 20 0
-10 -18 -20 0
7 11 19 0
-7 -11 -19 0
11 19 20 0
-11 -19 -20 0
8 12 19 0
-8 -12 -19 0
12 20 0
-12 -20 0
9 13 19 0
-9 -13 -19 0
13 20 21 0
-13 -20 -21 0
10 14 19 0
-10 -14 -19 0
14 20 22 0
-14 -20 -22 0
11 15 19 0
-11 -15 -19 0
15 20 23 0
-15 -20 -23 0
12 16 19 0
-12 -16 -19 0
16 20 24 0
-16 -20 -24 0
1 17 18 0
-1 -17 -18 0
13 17 19 0
-13 -17 -19 0
17 20 25 0
-17 -20 -25 0
2 18 0
-2 -18 0
14 18 19 0
-14 -18 -19 0
18 20 26 0
-18 -20 -26 0
3 18 19 0
-3 -18 -19 0
15 19 0
-15 -19 0
19 20 27 0
-19 -20 -27 0
4 18 20 0
-4 -18 -20 0
16 19 20 0
-16 -19 -20 0
20 28 0
-20 -28 0
5 18 21 0
-5 -18 -21 0
17 19 21 0
-17 -19 -21 0
20 21 29 0
-20 -21 -29 0
6 18 22 0
-6 -18 -22 0
18 19 22 0
-18 -19 -22 0
7 18 23 0
-7 -18 -23 0
19 23 0
-19 -23 0
8 18 24 0
-8 -18 -24 0
19 20 24 0
-19 -20 -24 0
9 18 25 0
-9 -18 -25 0
19 21 25 0
-19 -21 -25 0
10 18 26 0
-10 -18 -26 0
19 22 26 0
-19 -22 -26 0
11 18 27 0
-11 -18 -27 0
19 23 27 0
-19 -23 -27 0
12 18 28 0
-12 -18 -28 0
19 24 28 0
-19 -24 -28 0
1 17 29 0
-1 -17 -29 0
13 18 29 0
-13 -18 -29 0
19 25 29 0
-19 -25 -29 0
