certificates/rado_a12_c232_N29.drat
19 18 -29 0
-28 -29 0
-29 0
-19 -18 0
28 0
-20 0
12 0
21 0
-18 0
-1 0
-8 0
2 0
13 0
26 0
10 0
4 0
17 0
9 0
16 0
24 0
-22 0
-6 0
0
